Problem:    4
Rows:       6
Columns:    5
Non-zeros:  18
Status:     OPTIMAL
Objective:  0 (MINimum)

   No.   Row name   St   Activity     Lower bound   Upper bound    Marginal
------ ------------ -- ------------- ------------- ------------- -------------
     1 Norm         NS             1             1             =         < eps
     2 Bil[0]       NS             0            -0             =         < eps
     3 Bil[1]       NS             0            -0             =         < eps
     4 Bil[2]       NS             0            -0             =         < eps
     5 Bil[3]       B              0            -0             = 
     6 DefV         NS             0            -0             =         < eps

   No. Column name  St   Activity     Lower bound   Upper bound    Marginal
------ ------------ -- ------------- ------------- ------------- -------------
     1 P[0]         B      0.0906772             0               
     2 P[1]         B       0.226693             0               
     3 P[2]         B       0.374044             0               
     4 P[3]         B       0.308586             0               
     5 v            B        1.90054                             

Karush-Kuhn-Tucker optimality conditions:

KKT.PE: max.abs.err = 2.78e-017 on row 3
        max.rel.err = 1.87e-017 on row 3
        High quality

KKT.PB: max.abs.err = 0.00e+000 on row 0
        max.rel.err = 0.00e+000 on row 0
        High quality

KKT.DE: max.abs.err = 0.00e+000 on column 0
        max.rel.err = 0.00e+000 on column 0
        High quality

KKT.DB: max.abs.err = 0.00e+000 on row 0
        max.rel.err = 0.00e+000 on row 0
        High quality

End of output
